c t pmc
c file mc2022_track3_161.cnf
p cnf 170 1366
c p show 12 14 16 19 23 26 28 29 30 36 39 41 44 48 50 51 59 66 71 76 87 89 90 91 92 97 99 107 108 113 114 117 120 121 122 127 132 134 135 136 138 142 144 146 152 157 160 161 163 164 166 0
-1 0
-86 0
24 0
-109 0
-52 0
137 0
1 86 24 109 0
-1 86 -24 109 0
1 -86 24 -109 0
-1 -86 -24 -109 0
1 86 14 99 0
-1 86 -14 99 0
1 -86 14 -99 0
-1 -86 -14 -99 0
1 86 52 137 0
-1 86 -52 137 0
1 -86 52 -137 0
-1 -86 -52 -137 0
1 86 45 130 0
-1 86 -45 130 0
1 -86 45 -130 0
-1 -86 -45 -130 0
1 86 63 148 0
-1 86 -63 148 0
1 -86 63 -148 0
-1 -86 -63 -148 0
1 86 49 134 0
-1 86 -49 134 0
1 -86 49 -134 0
-1 -86 -49 -134 0
1 86 80 165 0
-1 86 -80 165 0
1 -86 80 -165 0
-1 -86 -80 -165 0
1 86 85 170 0
-1 86 -85 170 0
1 -86 85 -170 0
-1 -86 -85 -170 0
2 87 63 148 0
-2 87 -63 148 0
2 -87 63 -148 0
-2 -87 -63 -148 0
2 87 18 103 0
-2 87 -18 103 0
2 -87 18 -103 0
-2 -87 -18 -103 0
2 87 48 133 0
-2 87 -48 133 0
2 -87 48 -133 0
-2 -87 -48 -133 0
2 87 42 127 0
-2 87 -42 127 0
2 -87 42 -127 0
-2 -87 -42 -127 0
2 87 24 109 0
-2 87 -24 109 0
2 -87 24 -109 0
-2 -87 -24 -109 0
2 87 60 145 0
-2 87 -60 145 0
2 -87 60 -145 0
-2 -87 -60 -145 0
2 87 64 149 0
-2 87 -64 149 0
2 -87 64 -149 0
-2 -87 -64 -149 0
2 87 79 164 0
-2 87 -79 164 0
2 -87 79 -164 0
-2 -87 -79 -164 0
3 88 27 112 0
-3 88 -27 112 0
3 -88 27 -112 0
-3 -88 -27 -112 0
3 88 50 135 0
-3 88 -50 135 0
3 -88 50 -135 0
-3 -88 -50 -135 0
3 88 9 94 0
-3 88 -9 94 0
3 -88 9 -94 0
-3 -88 -9 -94 0
3 88 69 154 0
-3 88 -69 154 0
3 -88 69 -154 0
-3 -88 -69 -154 0
3 88 61 146 0
-3 88 -61 146 0
3 -88 61 -146 0
-3 -88 -61 -146 0
3 88 45 130 0
-3 88 -45 130 0
3 -88 45 -130 0
-3 -88 -45 -130 0
3 88 48 133 0
-3 88 -48 133 0
3 -88 48 -133 0
-3 -88 -48 -133 0
3 88 40 125 0
-3 88 -40 125 0
3 -88 40 -125 0
-3 -88 -40 -125 0
4 89 51 136 0
-4 89 -51 136 0
4 -89 51 -136 0
-4 -89 -51 -136 0
4 89 19 104 0
-4 89 -19 104 0
4 -89 19 -104 0
-4 -89 -19 -104 0
4 89 24 109 0
-4 89 -24 109 0
4 -89 24 -109 0
-4 -89 -24 -109 0
4 89 7 92 0
-4 89 -7 92 0
4 -89 7 -92 0
-4 -89 -7 -92 0
4 89 19 104 0
-4 89 -19 104 0
4 -89 19 -104 0
-4 -89 -19 -104 0
4 89 65 150 0
-4 89 -65 150 0
4 -89 65 -150 0
-4 -89 -65 -150 0
4 89 81 166 0
-4 89 -81 166 0
4 -89 81 -166 0
-4 -89 -81 -166 0
4 89 25 110 0
-4 89 -25 110 0
4 -89 25 -110 0
-4 -89 -25 -110 0
5 90 82 167 0
-5 90 -82 167 0
5 -90 82 -167 0
-5 -90 -82 -167 0
5 90 22 107 0
-5 90 -22 107 0
5 -90 22 -107 0
-5 -90 -22 -107 0
5 90 38 123 0
-5 90 -38 123 0
5 -90 38 -123 0
-5 -90 -38 -123 0
5 90 74 159 0
-5 90 -74 159 0
5 -90 74 -159 0
-5 -90 -74 -159 0
5 90 9 94 0
-5 90 -9 94 0
5 -90 9 -94 0
-5 -90 -9 -94 0
5 90 68 153 0
-5 90 -68 153 0
5 -90 68 -153 0
-5 -90 -68 -153 0
5 90 77 162 0
-5 90 -77 162 0
5 -90 77 -162 0
-5 -90 -77 -162 0
5 90 78 163 0
-5 90 -78 163 0
5 -90 78 -163 0
-5 -90 -78 -163 0
6 91 16 101 0
-6 91 -16 101 0
6 -91 16 -101 0
-6 -91 -16 -101 0
6 91 61 146 0
-6 91 -61 146 0
6 -91 61 -146 0
-6 -91 -61 -146 0
6 91 79 164 0
-6 91 -79 164 0
6 -91 79 -164 0
-6 -91 -79 -164 0
6 91 42 127 0
-6 91 -42 127 0
6 -91 42 -127 0
-6 -91 -42 -127 0
6 91 74 159 0
-6 91 -74 159 0
6 -91 74 -159 0
-6 -91 -74 -159 0
6 91 21 106 0
-6 91 -21 106 0
6 -91 21 -106 0
-6 -91 -21 -106 0
6 91 65 150 0
-6 91 -65 150 0
6 -91 65 -150 0
-6 -91 -65 -150 0
6 91 31 116 0
-6 91 -31 116 0
6 -91 31 -116 0
-6 -91 -31 -116 0
7 92 8 93 0
-7 92 -8 93 0
7 -92 8 -93 0
-7 -92 -8 -93 0
7 92 49 134 0
-7 92 -49 134 0
7 -92 49 -134 0
-7 -92 -49 -134 0
7 92 23 108 0
-7 92 -23 108 0
7 -92 23 -108 0
-7 -92 -23 -108 0
7 92 25 110 0
-7 92 -25 110 0
7 -92 25 -110 0
-7 -92 -25 -110 0
7 92 38 123 0
-7 92 -38 123 0
7 -92 38 -123 0
-7 -92 -38 -123 0
7 92 45 130 0
-7 92 -45 130 0
7 -92 45 -130 0
-7 -92 -45 -130 0
7 92 85 170 0
-7 92 -85 170 0
7 -92 85 -170 0
-7 -92 -85 -170 0
8 93 73 158 0
-8 93 -73 158 0
8 -93 73 -158 0
-8 -93 -73 -158 0
8 93 53 138 0
-8 93 -53 138 0
8 -93 53 -138 0
-8 -93 -53 -138 0
8 93 27 112 0
-8 93 -27 112 0
8 -93 27 -112 0
-8 -93 -27 -112 0
8 93 75 160 0
-8 93 -75 160 0
8 -93 75 -160 0
-8 -93 -75 -160 0
8 93 51 136 0
-8 93 -51 136 0
8 -93 51 -136 0
-8 -93 -51 -136 0
8 93 73 158 0
-8 93 -73 158 0
8 -93 73 -158 0
-8 -93 -73 -158 0
8 93 27 112 0
-8 93 -27 112 0
8 -93 27 -112 0
-8 -93 -27 -112 0
9 94 50 135 0
-9 94 -50 135 0
9 -94 50 -135 0
-9 -94 -50 -135 0
9 94 42 127 0
-9 94 -42 127 0
9 -94 42 -127 0
-9 -94 -42 -127 0
9 94 82 167 0
-9 94 -82 167 0
9 -94 82 -167 0
-9 -94 -82 -167 0
9 94 21 106 0
-9 94 -21 106 0
9 -94 21 -106 0
-9 -94 -21 -106 0
9 94 48 133 0
-9 94 -48 133 0
9 -94 48 -133 0
-9 -94 -48 -133 0
9 94 35 120 0
-9 94 -35 120 0
9 -94 35 -120 0
-9 -94 -35 -120 0
10 95 25 110 0
-10 95 -25 110 0
10 -95 25 -110 0
-10 -95 -25 -110 0
10 95 41 126 0
-10 95 -41 126 0
10 -95 41 -126 0
-10 -95 -41 -126 0
10 95 47 132 0
-10 95 -47 132 0
10 -95 47 -132 0
-10 -95 -47 -132 0
10 95 18 103 0
-10 95 -18 103 0
10 -95 18 -103 0
-10 -95 -18 -103 0
10 95 30 115 0
-10 95 -30 115 0
10 -95 30 -115 0
-10 -95 -30 -115 0
10 95 63 148 0
-10 95 -63 148 0
10 -95 63 -148 0
-10 -95 -63 -148 0
10 95 26 111 0
-10 95 -26 111 0
10 -95 26 -111 0
-10 -95 -26 -111 0
10 95 78 163 0
-10 95 -78 163 0
10 -95 78 -163 0
-10 -95 -78 -163 0
11 96 41 126 0
-11 96 -41 126 0
11 -96 41 -126 0
-11 -96 -41 -126 0
11 96 12 97 0
-11 96 -12 97 0
11 -96 12 -97 0
-11 -96 -12 -97 0
11 96 34 119 0
-11 96 -34 119 0
11 -96 34 -119 0
-11 -96 -34 -119 0
11 96 29 114 0
-11 96 -29 114 0
11 -96 29 -114 0
-11 -96 -29 -114 0
11 96 76 161 0
-11 96 -76 161 0
11 -96 76 -161 0
-11 -96 -76 -161 0
11 96 67 152 0
-11 96 -67 152 0
11 -96 67 -152 0
-11 -96 -67 -152 0
11 96 58 143 0
-11 96 -58 143 0
11 -96 58 -143 0
-11 -96 -58 -143 0
11 96 72 157 0
-11 96 -72 157 0
11 -96 72 -157 0
-11 -96 -72 -157 0
12 97 46 131 0
-12 97 -46 131 0
12 -97 46 -131 0
-12 -97 -46 -131 0
12 97 67 152 0
-12 97 -67 152 0
12 -97 67 -152 0
-12 -97 -67 -152 0
12 97 46 131 0
-12 97 -46 131 0
12 -97 46 -131 0
-12 -97 -46 -131 0
12 97 43 128 0
-12 97 -43 128 0
12 -97 43 -128 0
-12 -97 -43 -128 0
12 97 26 111 0
-12 97 -26 111 0
12 -97 26 -111 0
-12 -97 -26 -111 0
12 97 52 137 0
-12 97 -52 137 0
12 -97 52 -137 0
-12 -97 -52 -137 0
12 97 64 149 0
-12 97 -64 149 0
12 -97 64 -149 0
-12 -97 -64 -149 0
13 98 19 104 0
-13 98 -19 104 0
13 -98 19 -104 0
-13 -98 -19 -104 0
13 98 29 114 0
-13 98 -29 114 0
13 -98 29 -114 0
-13 -98 -29 -114 0
13 98 85 170 0
-13 98 -85 170 0
13 -98 85 -170 0
-13 -98 -85 -170 0
13 98 22 107 0
-13 98 -22 107 0
13 -98 22 -107 0
-13 -98 -22 -107 0
13 98 27 112 0
-13 98 -27 112 0
13 -98 27 -112 0
-13 -98 -27 -112 0
13 98 67 152 0
-13 98 -67 152 0
13 -98 67 -152 0
-13 -98 -67 -152 0
13 98 37 122 0
-13 98 -37 122 0
13 -98 37 -122 0
-13 -98 -37 -122 0
13 98 77 162 0
-13 98 -77 162 0
13 -98 77 -162 0
-13 -98 -77 -162 0
14 99 23 108 0
-14 99 -23 108 0
14 -99 23 -108 0
-14 -99 -23 -108 0
14 99 66 151 0
-14 99 -66 151 0
14 -99 66 -151 0
-14 -99 -66 -151 0
14 99 35 120 0
-14 99 -35 120 0
14 -99 35 -120 0
-14 -99 -35 -120 0
14 99 39 124 0
-14 99 -39 124 0
14 -99 39 -124 0
-14 -99 -39 -124 0
14 99 84 169 0
-14 99 -84 169 0
14 -99 84 -169 0
-14 -99 -84 -169 0
14 99 20 105 0
-14 99 -20 105 0
14 -99 20 -105 0
-14 -99 -20 -105 0
14 99 54 139 0
-14 99 -54 139 0
14 -99 54 -139 0
-14 -99 -54 -139 0
15 100 39 124 0
-15 100 -39 124 0
15 -100 39 -124 0
-15 -100 -39 -124 0
15 100 41 126 0
-15 100 -41 126 0
15 -100 41 -126 0
-15 -100 -41 -126 0
15 100 77 162 0
-15 100 -77 162 0
15 -100 77 -162 0
-15 -100 -77 -162 0
15 100 16 101 0
-15 100 -16 101 0
15 -100 16 -101 0
-15 -100 -16 -101 0
15 100 57 142 0
-15 100 -57 142 0
15 -100 57 -142 0
-15 -100 -57 -142 0
15 100 44 129 0
-15 100 -44 129 0
15 -100 44 -129 0
-15 -100 -44 -129 0
15 100 50 135 0
-15 100 -50 135 0
15 -100 50 -135 0
-15 -100 -50 -135 0
15 100 83 168 0
-15 100 -83 168 0
15 -100 83 -168 0
-15 -100 -83 -168 0
16 101 81 166 0
-16 101 -81 166 0
16 -101 81 -166 0
-16 -101 -81 -166 0
16 101 51 136 0
-16 101 -51 136 0
16 -101 51 -136 0
-16 -101 -51 -136 0
16 101 62 147 0
-16 101 -62 147 0
16 -101 62 -147 0
-16 -101 -62 -147 0
16 101 61 146 0
-16 101 -61 146 0
16 -101 61 -146 0
-16 -101 -61 -146 0
16 101 56 141 0
-16 101 -56 141 0
16 -101 56 -141 0
-16 -101 -56 -141 0
16 101 25 110 0
-16 101 -25 110 0
16 -101 25 -110 0
-16 -101 -25 -110 0
17 102 52 137 0
-17 102 -52 137 0
17 -102 52 -137 0
-17 -102 -52 -137 0
17 102 51 136 0
-17 102 -51 136 0
17 -102 51 -136 0
-17 -102 -51 -136 0
17 102 65 150 0
-17 102 -65 150 0
17 -102 65 -150 0
-17 -102 -65 -150 0
17 102 55 140 0
-17 102 -55 140 0
17 -102 55 -140 0
-17 -102 -55 -140 0
17 102 58 143 0
-17 102 -58 143 0
17 -102 58 -143 0
-17 -102 -58 -143 0
17 102 80 165 0
-17 102 -80 165 0
17 -102 80 -165 0
-17 -102 -80 -165 0
17 102 28 113 0
-17 102 -28 113 0
17 -102 28 -113 0
-17 -102 -28 -113 0
17 102 20 105 0
-17 102 -20 105 0
17 -102 20 -105 0
-17 -102 -20 -105 0
18 103 46 131 0
-18 103 -46 131 0
18 -103 46 -131 0
-18 -103 -46 -131 0
18 103 23 108 0
-18 103 -23 108 0
18 -103 23 -108 0
-18 -103 -23 -108 0
18 103 75 160 0
-18 103 -75 160 0
18 -103 75 -160 0
-18 -103 -75 -160 0
18 103 56 141 0
-18 103 -56 141 0
18 -103 56 -141 0
-18 -103 -56 -141 0
18 103 29 114 0
-18 103 -29 114 0
18 -103 29 -114 0
-18 -103 -29 -114 0
18 103 21 106 0
-18 103 -21 106 0
18 -103 21 -106 0
-18 -103 -21 -106 0
19 104 28 113 0
-19 104 -28 113 0
19 -104 28 -113 0
-19 -104 -28 -113 0
19 104 34 119 0
-19 104 -34 119 0
19 -104 34 -119 0
-19 -104 -34 -119 0
19 104 37 122 0
-19 104 -37 122 0
19 -104 37 -122 0
-19 -104 -37 -122 0
19 104 33 118 0
-19 104 -33 118 0
19 -104 33 -118 0
-19 -104 -33 -118 0
19 104 58 143 0
-19 104 -58 143 0
19 -104 58 -143 0
-19 -104 -58 -143 0
20 105 37 122 0
-20 105 -37 122 0
20 -105 37 -122 0
-20 -105 -37 -122 0
20 105 81 166 0
-20 105 -81 166 0
20 -105 81 -166 0
-20 -105 -81 -166 0
20 105 77 162 0
-20 105 -77 162 0
20 -105 77 -162 0
-20 -105 -77 -162 0
20 105 65 150 0
-20 105 -65 150 0
20 -105 65 -150 0
-20 -105 -65 -150 0
20 105 74 159 0
-20 105 -74 159 0
20 -105 74 -159 0
-20 -105 -74 -159 0
20 105 37 122 0
-20 105 -37 122 0
20 -105 37 -122 0
-20 -105 -37 -122 0
21 106 47 132 0
-21 106 -47 132 0
21 -106 47 -132 0
-21 -106 -47 -132 0
21 106 83 168 0
-21 106 -83 168 0
21 -106 83 -168 0
-21 -106 -83 -168 0
21 106 76 161 0
-21 106 -76 161 0
21 -106 76 -161 0
-21 -106 -76 -161 0
21 106 69 154 0
-21 106 -69 154 0
21 -106 69 -154 0
-21 -106 -69 -154 0
21 106 52 137 0
-21 106 -52 137 0
21 -106 52 -137 0
-21 -106 -52 -137 0
22 107 27 112 0
-22 107 -27 112 0
22 -107 27 -112 0
-22 -107 -27 -112 0
22 107 83 168 0
-22 107 -83 168 0
22 -107 83 -168 0
-22 -107 -83 -168 0
22 107 79 164 0
-22 107 -79 164 0
22 -107 79 -164 0
-22 -107 -79 -164 0
22 107 85 170 0
-22 107 -85 170 0
22 -107 85 -170 0
-22 -107 -85 -170 0
22 107 66 151 0
-22 107 -66 151 0
22 -107 66 -151 0
-22 -107 -66 -151 0
22 107 76 161 0
-22 107 -76 161 0
22 -107 76 -161 0
-22 -107 -76 -161 0
23 108 56 141 0
-23 108 -56 141 0
23 -108 56 -141 0
-23 -108 -56 -141 0
23 108 72 157 0
-23 108 -72 157 0
23 -108 72 -157 0
-23 -108 -72 -157 0
23 108 40 125 0
-23 108 -40 125 0
23 -108 40 -125 0
-23 -108 -40 -125 0
23 108 47 132 0
-23 108 -47 132 0
23 -108 47 -132 0
-23 -108 -47 -132 0
23 108 53 138 0
-23 108 -53 138 0
23 -108 53 -138 0
-23 -108 -53 -138 0
24 109 73 158 0
-24 109 -73 158 0
24 -109 73 -158 0
-24 -109 -73 -158 0
24 109 42 127 0
-24 109 -42 127 0
24 -109 42 -127 0
-24 -109 -42 -127 0
24 109 73 158 0
-24 109 -73 158 0
24 -109 73 -158 0
-24 -109 -73 -158 0
24 109 52 137 0
-24 109 -52 137 0
24 -109 52 -137 0
-24 -109 -52 -137 0
24 109 64 149 0
-24 109 -64 149 0
24 -109 64 -149 0
-24 -109 -64 -149 0
25 110 43 128 0
-25 110 -43 128 0
25 -110 43 -128 0
-25 -110 -43 -128 0
25 110 40 125 0
-25 110 -40 125 0
25 -110 40 -125 0
-25 -110 -40 -125 0
25 110 82 167 0
-25 110 -82 167 0
25 -110 82 -167 0
-25 -110 -82 -167 0
25 110 78 163 0
-25 110 -78 163 0
25 -110 78 -163 0
-25 -110 -78 -163 0
26 111 57 142 0
-26 111 -57 142 0
26 -111 57 -142 0
-26 -111 -57 -142 0
26 111 82 167 0
-26 111 -82 167 0
26 -111 82 -167 0
-26 -111 -82 -167 0
26 111 35 120 0
-26 111 -35 120 0
26 -111 35 -120 0
-26 -111 -35 -120 0
26 111 75 160 0
-26 111 -75 160 0
26 -111 75 -160 0
-26 -111 -75 -160 0
26 111 80 165 0
-26 111 -80 165 0
26 -111 80 -165 0
-26 -111 -80 -165 0
26 111 66 151 0
-26 111 -66 151 0
26 -111 66 -151 0
-26 -111 -66 -151 0
27 112 51 136 0
-27 112 -51 136 0
27 -112 51 -136 0
-27 -112 -51 -136 0
27 112 39 124 0
-27 112 -39 124 0
27 -112 39 -124 0
-27 -112 -39 -124 0
27 112 44 129 0
-27 112 -44 129 0
27 -112 44 -129 0
-27 -112 -44 -129 0
28 113 45 130 0
-28 113 -45 130 0
28 -113 45 -130 0
-28 -113 -45 -130 0
28 113 84 169 0
-28 113 -84 169 0
28 -113 84 -169 0
-28 -113 -84 -169 0
28 113 83 168 0
-28 113 -83 168 0
28 -113 83 -168 0
-28 -113 -83 -168 0
28 113 81 166 0
-28 113 -81 166 0
28 -113 81 -166 0
-28 -113 -81 -166 0
28 113 40 125 0
-28 113 -40 125 0
28 -113 40 -125 0
-28 -113 -40 -125 0
28 113 83 168 0
-28 113 -83 168 0
28 -113 83 -168 0
-28 -113 -83 -168 0
29 114 60 145 0
-29 114 -60 145 0
29 -114 60 -145 0
-29 -114 -60 -145 0
29 114 30 115 0
-29 114 -30 115 0
29 -114 30 -115 0
-29 -114 -30 -115 0
29 114 72 157 0
-29 114 -72 157 0
29 -114 72 -157 0
-29 -114 -72 -157 0
29 114 75 160 0
-29 114 -75 160 0
29 -114 75 -160 0
-29 -114 -75 -160 0
29 114 62 147 0
-29 114 -62 147 0
29 -114 62 -147 0
-29 -114 -62 -147 0
30 115 62 147 0
-30 115 -62 147 0
30 -115 62 -147 0
-30 -115 -62 -147 0
30 115 80 165 0
-30 115 -80 165 0
30 -115 80 -165 0
-30 -115 -80 -165 0
30 115 35 120 0
-30 115 -35 120 0
30 -115 35 -120 0
-30 -115 -35 -120 0
30 115 42 127 0
-30 115 -42 127 0
30 -115 42 -127 0
-30 -115 -42 -127 0
30 115 51 136 0
-30 115 -51 136 0
30 -115 51 -136 0
-30 -115 -51 -136 0
30 115 72 157 0
-30 115 -72 157 0
30 -115 72 -157 0
-30 -115 -72 -157 0
31 116 81 166 0
-31 116 -81 166 0
31 -116 81 -166 0
-31 -116 -81 -166 0
31 116 52 137 0
-31 116 -52 137 0
31 -116 52 -137 0
-31 -116 -52 -137 0
31 116 56 141 0
-31 116 -56 141 0
31 -116 56 -141 0
-31 -116 -56 -141 0
31 116 53 138 0
-31 116 -53 138 0
31 -116 53 -138 0
-31 -116 -53 -138 0
31 116 68 153 0
-31 116 -68 153 0
31 -116 68 -153 0
-31 -116 -68 -153 0
31 116 76 161 0
-31 116 -76 161 0
31 -116 76 -161 0
-31 -116 -76 -161 0
31 116 58 143 0
-31 116 -58 143 0
31 -116 58 -143 0
-31 -116 -58 -143 0
32 117 60 145 0
-32 117 -60 145 0
32 -117 60 -145 0
-32 -117 -60 -145 0
32 117 74 159 0
-32 117 -74 159 0
32 -117 74 -159 0
-32 -117 -74 -159 0
32 117 68 153 0
-32 117 -68 153 0
32 -117 68 -153 0
-32 -117 -68 -153 0
32 117 69 154 0
-32 117 -69 154 0
32 -117 69 -154 0
-32 -117 -69 -154 0
32 117 40 125 0
-32 117 -40 125 0
32 -117 40 -125 0
-32 -117 -40 -125 0
32 117 61 146 0
-32 117 -61 146 0
32 -117 61 -146 0
-32 -117 -61 -146 0
32 117 49 134 0
-32 117 -49 134 0
32 -117 49 -134 0
-32 -117 -49 -134 0
32 117 74 159 0
-32 117 -74 159 0
32 -117 74 -159 0
-32 -117 -74 -159 0
33 118 68 153 0
-33 118 -68 153 0
33 -118 68 -153 0
-33 -118 -68 -153 0
33 118 68 153 0
-33 118 -68 153 0
33 -118 68 -153 0
-33 -118 -68 -153 0
33 118 84 169 0
-33 118 -84 169 0
33 -118 84 -169 0
-33 -118 -84 -169 0
33 118 80 165 0
-33 118 -80 165 0
33 -118 80 -165 0
-33 -118 -80 -165 0
33 118 55 140 0
-33 118 -55 140 0
33 -118 55 -140 0
-33 -118 -55 -140 0
33 118 57 142 0
-33 118 -57 142 0
33 -118 57 -142 0
-33 -118 -57 -142 0
33 118 37 122 0
-33 118 -37 122 0
33 -118 37 -122 0
-33 -118 -37 -122 0
34 119 51 136 0
-34 119 -51 136 0
34 -119 51 -136 0
-34 -119 -51 -136 0
34 119 79 164 0
-34 119 -79 164 0
34 -119 79 -164 0
-34 -119 -79 -164 0
34 119 69 154 0
-34 119 -69 154 0
34 -119 69 -154 0
-34 -119 -69 -154 0
34 119 73 158 0
-34 119 -73 158 0
34 -119 73 -158 0
-34 -119 -73 -158 0
34 119 57 142 0
-34 119 -57 142 0
34 -119 57 -142 0
-34 -119 -57 -142 0
34 119 61 146 0
-34 119 -61 146 0
34 -119 61 -146 0
-34 -119 -61 -146 0
35 120 50 135 0
-35 120 -50 135 0
35 -120 50 -135 0
-35 -120 -50 -135 0
35 120 68 153 0
-35 120 -68 153 0
35 -120 68 -153 0
-35 -120 -68 -153 0
35 120 40 125 0
-35 120 -40 125 0
35 -120 40 -125 0
-35 -120 -40 -125 0
35 120 74 159 0
-35 120 -74 159 0
35 -120 74 -159 0
-35 -120 -74 -159 0
36 121 42 127 0
-36 121 -42 127 0
36 -121 42 -127 0
-36 -121 -42 -127 0
36 121 47 132 0
-36 121 -47 132 0
36 -121 47 -132 0
-36 -121 -47 -132 0
36 121 44 129 0
-36 121 -44 129 0
36 -121 44 -129 0
-36 -121 -44 -129 0
36 121 55 140 0
-36 121 -55 140 0
36 -121 55 -140 0
-36 -121 -55 -140 0
36 121 74 159 0
-36 121 -74 159 0
36 -121 74 -159 0
-36 -121 -74 -159 0
36 121 54 139 0
-36 121 -54 139 0
36 -121 54 -139 0
-36 -121 -54 -139 0
36 121 77 162 0
-36 121 -77 162 0
36 -121 77 -162 0
-36 -121 -77 -162 0
36 121 64 149 0
-36 121 -64 149 0
36 -121 64 -149 0
-36 -121 -64 -149 0
37 122 66 151 0
-37 122 -66 151 0
37 -122 66 -151 0
-37 -122 -66 -151 0
37 122 55 140 0
-37 122 -55 140 0
37 -122 55 -140 0
-37 -122 -55 -140 0
37 122 71 156 0
-37 122 -71 156 0
37 -122 71 -156 0
-37 -122 -71 -156 0
38 123 84 169 0
-38 123 -84 169 0
38 -123 84 -169 0
-38 -123 -84 -169 0
38 123 68 153 0
-38 123 -68 153 0
38 -123 68 -153 0
-38 -123 -68 -153 0
38 123 65 150 0
-38 123 -65 150 0
38 -123 65 -150 0
-38 -123 -65 -150 0
38 123 78 163 0
-38 123 -78 163 0
38 -123 78 -163 0
-38 -123 -78 -163 0
38 123 44 129 0
-38 123 -44 129 0
38 -123 44 -129 0
-38 -123 -44 -129 0
38 123 69 154 0
-38 123 -69 154 0
38 -123 69 -154 0
-38 -123 -69 -154 0
39 124 72 157 0
-39 124 -72 157 0
39 -124 72 -157 0
-39 -124 -72 -157 0
39 124 53 138 0
-39 124 -53 138 0
39 -124 53 -138 0
-39 -124 -53 -138 0
39 124 54 139 0
-39 124 -54 139 0
39 -124 54 -139 0
-39 -124 -54 -139 0
39 124 49 134 0
-39 124 -49 134 0
39 -124 49 -134 0
-39 -124 -49 -134 0
39 124 58 143 0
-39 124 -58 143 0
39 -124 58 -143 0
-39 -124 -58 -143 0
40 125 44 129 0
-40 125 -44 129 0
40 -125 44 -129 0
-40 -125 -44 -129 0
40 125 48 133 0
-40 125 -48 133 0
40 -125 48 -133 0
-40 -125 -48 -133 0
41 126 46 131 0
-41 126 -46 131 0
41 -126 46 -131 0
-41 -126 -46 -131 0
41 126 70 155 0
-41 126 -70 155 0
41 -126 70 -155 0
-41 -126 -70 -155 0
41 126 80 165 0
-41 126 -80 165 0
41 -126 80 -165 0
-41 -126 -80 -165 0
41 126 52 137 0
-41 126 -52 137 0
41 -126 52 -137 0
-41 -126 -52 -137 0
41 126 46 131 0
-41 126 -46 131 0
41 -126 46 -131 0
-41 -126 -46 -131 0
42 127 48 133 0
-42 127 -48 133 0
42 -127 48 -133 0
-42 -127 -48 -133 0
42 127 75 160 0
-42 127 -75 160 0
42 -127 75 -160 0
-42 -127 -75 -160 0
43 128 63 148 0
-43 128 -63 148 0
43 -128 63 -148 0
-43 -128 -63 -148 0
43 128 71 156 0
-43 128 -71 156 0
43 -128 71 -156 0
-43 -128 -71 -156 0
43 128 53 138 0
-43 128 -53 138 0
43 -128 53 -138 0
-43 -128 -53 -138 0
43 128 77 162 0
-43 128 -77 162 0
43 -128 77 -162 0
-43 -128 -77 -162 0
43 128 51 136 0
-43 128 -51 136 0
43 -128 51 -136 0
-43 -128 -51 -136 0
43 128 59 144 0
-43 128 -59 144 0
43 -128 59 -144 0
-43 -128 -59 -144 0
44 129 53 138 0
-44 129 -53 138 0
44 -129 53 -138 0
-44 -129 -53 -138 0
44 129 85 170 0
-44 129 -85 170 0
44 -129 85 -170 0
-44 -129 -85 -170 0
44 129 67 152 0
-44 129 -67 152 0
44 -129 67 -152 0
-44 -129 -67 -152 0
45 130 57 142 0
-45 130 -57 142 0
45 -130 57 -142 0
-45 -130 -57 -142 0
45 130 71 156 0
-45 130 -71 156 0
45 -130 71 -156 0
-45 -130 -71 -156 0
45 130 71 156 0
-45 130 -71 156 0
45 -130 71 -156 0
-45 -130 -71 -156 0
45 130 79 164 0
-45 130 -79 164 0
45 -130 79 -164 0
-45 -130 -79 -164 0
46 131 65 150 0
-46 131 -65 150 0
46 -131 65 -150 0
-46 -131 -65 -150 0
46 131 64 149 0
-46 131 -64 149 0
46 -131 64 -149 0
-46 -131 -64 -149 0
46 131 75 160 0
-46 131 -75 160 0
46 -131 75 -160 0
-46 -131 -75 -160 0
47 132 70 155 0
-47 132 -70 155 0
47 -132 70 -155 0
-47 -132 -70 -155 0
47 132 72 157 0
-47 132 -72 157 0
47 -132 72 -157 0
-47 -132 -72 -157 0
47 132 82 167 0
-47 132 -82 167 0
47 -132 82 -167 0
-47 -132 -82 -167 0
47 132 49 134 0
-47 132 -49 134 0
47 -132 49 -134 0
-47 -132 -49 -134 0
48 133 83 168 0
-48 133 -83 168 0
48 -133 83 -168 0
-48 -133 -83 -168 0
48 133 67 152 0
-48 133 -67 152 0
48 -133 67 -152 0
-48 -133 -67 -152 0
48 133 71 156 0
-48 133 -71 156 0
48 -133 71 -156 0
-48 -133 -71 -156 0
49 134 75 160 0
-49 134 -75 160 0
49 -134 75 -160 0
-49 -134 -75 -160 0
49 134 71 156 0
-49 134 -71 156 0
49 -134 71 -156 0
-49 -134 -71 -156 0
49 134 71 156 0
-49 134 -71 156 0
49 -134 71 -156 0
-49 -134 -71 -156 0
50 135 61 146 0
-50 135 -61 146 0
50 -135 61 -146 0
-50 -135 -61 -146 0
50 135 66 151 0
-50 135 -66 151 0
50 -135 66 -151 0
-50 -135 -66 -151 0
50 135 57 142 0
-50 135 -57 142 0
50 -135 57 -142 0
-50 -135 -57 -142 0
50 135 83 168 0
-50 135 -83 168 0
50 -135 83 -168 0
-50 -135 -83 -168 0
52 137 85 170 0
-52 137 -85 170 0
52 -137 85 -170 0
-52 -137 -85 -170 0
53 138 59 144 0
-53 138 -59 144 0
53 -138 59 -144 0
-53 -138 -59 -144 0
53 138 59 144 0
-53 138 -59 144 0
53 -138 59 -144 0
-53 -138 -59 -144 0
54 139 64 149 0
-54 139 -64 149 0
54 -139 64 -149 0
-54 -139 -64 -149 0
54 139 69 154 0
-54 139 -69 154 0
54 -139 69 -154 0
-54 -139 -69 -154 0
54 139 75 160 0
-54 139 -75 160 0
54 -139 75 -160 0
-54 -139 -75 -160 0
54 139 59 144 0
-54 139 -59 144 0
54 -139 59 -144 0
-54 -139 -59 -144 0
54 139 56 141 0
-54 139 -56 141 0
54 -139 56 -141 0
-54 -139 -56 -141 0
55 140 78 163 0
-55 140 -78 163 0
55 -140 78 -163 0
-55 -140 -78 -163 0
55 140 76 161 0
-55 140 -76 161 0
55 -140 76 -161 0
-55 -140 -76 -161 0
55 140 58 143 0
-55 140 -58 143 0
55 -140 58 -143 0
-55 -140 -58 -143 0
55 140 59 144 0
-55 140 -59 144 0
55 -140 59 -144 0
-55 -140 -59 -144 0
56 141 62 147 0
-56 141 -62 147 0
56 -141 62 -147 0
-56 -141 -62 -147 0
56 141 58 143 0
-56 141 -58 143 0
56 -141 58 -143 0
-56 -141 -58 -143 0
56 141 85 170 0
-56 141 -85 170 0
56 -141 85 -170 0
-56 -141 -85 -170 0
57 142 70 155 0
-57 142 -70 155 0
57 -142 70 -155 0
-57 -142 -70 -155 0
57 142 70 155 0
-57 142 -70 155 0
57 -142 70 -155 0
-57 -142 -70 -155 0
58 143 73 158 0
-58 143 -73 158 0
58 -143 73 -158 0
-58 -143 -73 -158 0
59 144 84 169 0
-59 144 -84 169 0
59 -144 84 -169 0
-59 -144 -84 -169 0
59 144 73 158 0
-59 144 -73 158 0
59 -144 73 -158 0
-59 -144 -73 -158 0
59 144 62 147 0
-59 144 -62 147 0
59 -144 62 -147 0
-59 -144 -62 -147 0
60 145 71 156 0
-60 145 -71 156 0
60 -145 71 -156 0
-60 -145 -71 -156 0
60 145 76 161 0
-60 145 -76 161 0
60 -145 76 -161 0
-60 -145 -76 -161 0
60 145 73 158 0
-60 145 -73 158 0
60 -145 73 -158 0
-60 -145 -73 -158 0
60 145 70 155 0
-60 145 -70 155 0
60 -145 70 -155 0
-60 -145 -70 -155 0
60 145 66 151 0
-60 145 -66 151 0
60 -145 66 -151 0
-60 -145 -66 -151 0
61 146 85 170 0
-61 146 -85 170 0
61 -146 85 -170 0
-61 -146 -85 -170 0
61 146 72 157 0
-61 146 -72 157 0
61 -146 72 -157 0
-61 -146 -72 -157 0
62 147 78 163 0
-62 147 -78 163 0
62 -147 78 -163 0
-62 -147 -78 -163 0
62 147 66 151 0
-62 147 -66 151 0
62 -147 66 -151 0
-62 -147 -66 -151 0
62 147 63 148 0
-62 147 -63 148 0
62 -147 63 -148 0
-62 -147 -63 -148 0
63 148 65 150 0
-63 148 -65 150 0
63 -148 65 -150 0
-63 -148 -65 -150 0
63 148 81 166 0
-63 148 -81 166 0
63 -148 81 -166 0
-63 -148 -81 -166 0
63 148 79 164 0
-63 148 -79 164 0
63 -148 79 -164 0
-63 -148 -79 -164 0
64 149 84 169 0
-64 149 -84 169 0
64 -149 84 -169 0
-64 -149 -84 -169 0
64 149 70 155 0
-64 149 -70 155 0
64 -149 70 -155 0
-64 -149 -70 -155 0
65 150 76 161 0
-65 150 -76 161 0
65 -150 76 -161 0
-65 -150 -76 -161 0
66 151 83 168 0
-66 151 -83 168 0
66 -151 83 -168 0
-66 -151 -83 -168 0
67 152 84 169 0
-67 152 -84 169 0
67 -152 84 -169 0
-67 -152 -84 -169 0
67 152 81 166 0
-67 152 -81 166 0
67 -152 81 -166 0
-67 -152 -81 -166 0
67 152 76 161 0
-67 152 -76 161 0
67 -152 76 -161 0
-67 -152 -76 -161 0
68 153 72 157 0
-68 153 -72 157 0
68 -153 72 -157 0
-68 -153 -72 -157 0
69 154 80 165 0
-69 154 -80 165 0
69 -154 80 -165 0
-69 -154 -80 -165 0
69 154 78 163 0
-69 154 -78 163 0
69 -154 78 -163 0
-69 -154 -78 -163 0
70 155 82 167 0
-70 155 -82 167 0
70 -155 82 -167 0
-70 -155 -82 -167 0
70 155 84 169 0
-70 155 -84 169 0
70 -155 84 -169 0
-70 -155 -84 -169 0
74 159 82 167 0
-74 159 -82 167 0
74 -159 82 -167 0
-74 -159 -82 -167 0
77 162 78 163 0
-77 162 -78 163 0
77 -162 78 -163 0
-77 -162 -78 -163 0
77 162 82 167 0
-77 162 -82 167 0
77 -162 82 -167 0
-77 -162 -82 -167 0
79 164 80 165 0
-79 164 -80 165 0
79 -164 80 -165 0
-79 -164 -80 -165 0
79 164 81 166 0
-79 164 -81 166 0
79 -164 81 -166 0
-79 -164 -81 -166 0
